52
0 565 575 
1 25 185 
2 345 750 
3 945 685 
4 845 655 
5 880 660 
6 25 230 
7 525 1000 
8 580 1175 
9 650 1130 
10 1605 620 
11 1220 580 
12 1465 200 
13 1530 5 
14 845 680 
15 725 370 
16 145 665 
17 415 635 
18 510 875 
19 560 365 
20 300 465 
21 520 585 
22 480 415 
23 835 625 
24 975 580 
25 1215 245 
26 1320 315 
27 1250 400 
28 660 180 
29 410 250 
30 420 555 
31 575 665 
32 1150 1160 
33 700 580 
34 685 595 
35 685 610 
36 770 610 
37 795 645 
38 720 635 
39 760 650 
40 475 960 
41 95 260 
42 875 920 
43 700 500 
44 555 815 
45 830 485 
46 1170 65 
47 830 610 
48 605 625 
49 595 360 
50 1340 725 
51 1740 245 
